NAME : cluster_netgen
COMMENT : cl=4
TYPE : TSP
DIMENSION : 50
EDGE_WEIGHT_TYPE : EUC_2D
NODE_COORD_SECTION
1 979873 705139
2 978079 644133
3 986623 710358
4 994449 682482
5 966978 604512
6 978754 672433
7 970714 643172
8 994015 798445
9 982315 647467
10 983763 755788
11 981761 701809
12 926174 629039
13 357890 321148
14 277594 401250
15 271550 326978
16 213014 427279
17 345246 392965
18 260962 316966
19 270508 406623
20 288102 329166
21 289482 428042
22 343575 367746
23 220989 414976
24 317938 349250
25 246523 309969
26 197410 356677
27 251668 874417
28 206243 775226
29 292925 830228
30 370976 818262
31 157836 838746
32 135157 664033
33 226410 820576
34 211779 766258
35 290016 796779
36 267976 676383
37 138891 767275
38 135966 807358
39 500714 176860
40 520352 275127
41 568131 209045
42 538260 196767
43 566911 68500
44 597110 295976
45 452861 112121
46 576568 211319
47 592013 219023
48 425006 158814
49 525731 178243
50 550191 205003

EOF
